set VV := 0 1 2 3 4 ;
set VS := 0 1 2 3 4 5 6 7 8 9 10 11 12 13 ;
param cv := 
0 20
1 18
2 25
3 24
4 24
;
param cs := 
0 36
1 34
2 28
3 33
4 38
5 40
6 37
7 33
8 24
9 27
10 29
11 20
12 35
13 23
;
param bv:	 0 1 2 3 4 := 
		0 0 17 11 20 0 
		1 0 0 0 0 0 
		2 0 0 0 0 11 
		3 0 0 0 0 0 
		4 0 0 0 0 0 
;
param bs:	 0 1 2 3 4 5 6 7 8 9 10 11 12 13 := 
		0 0 0 0 39 0 0 0 0 0 39 0 0 0 0 
		1 0 0 28 0 0 0 0 0 31 0 0 0 0 0 
		2 0 28 0 40 0 0 0 0 0 0 38 0 0 0 
		3 39 0 40 0 25 0 0 0 0 0 0 0 0 0 
		4 0 0 0 25 0 0 0 0 0 0 38 0 0 0 
		5 0 0 0 0 0 0 0 0 0 20 0 35 0 0 
		6 0 0 0 0 0 0 0 0 0 31 0 0 0 33 
		7 0 0 0 0 0 0 0 0 0 0 37 0 31 0 
		8 0 31 0 0 0 0 0 0 0 0 38 0 27 27 
		9 39 0 0 0 0 20 31 0 0 0 0 0 21 0 
		10 0 0 38 0 38 0 0 37 38 0 0 0 32 0 
		11 0 0 0 0 0 35 0 0 0 0 0 0 0 0 
		12 0 0 0 0 0 0 0 31 27 21 32 0 0 0 
		13 0 0 0 0 0 0 33 0 27 0 0 0 0 0 
;
